Route #1: 7 33 55 22 58 51
Route #2: 21 23 46 24
Route #3: 54 16 37 60 61
Route #4: 8 27 35 6 12
Route #5: 15 25 40 29 56 17
Route #6: 49 45 39 1 41 9 2 14 53
Route #7: 59 10 19 42 3 5 18
Route #8: 52 43 30 36 48
Route #9: 38 4 26 13 28 20
Route #10: 62 50 57 32 34 11 47 44 31
Cost 1319
Time 0.155585
